
(set-option :produce-models true)
(set-option :inline-size-limit 10000)

(declare-const var0 String)

(push 1)
(assert (str.in.re var0 (re.* (re.range "\x01" "\xff"))))
(assert (str.in.re var0 (re.union (re.union (re.union (re.union (re.union (re.union (re.++ (re.++ re.begin-anchor (re.opt ((_ re.capture 1) (re.++ ((_ re.capture 2) (re.union (re.union (str.to.re " ") (re.union (str.to.re "\u{0b}") (re.union (str.to.re "\u{0a}") (re.union (str.to.re "\u{0d}") (re.union (str.to.re "\u{09}") (str.to.re "\u{0c}")))))) (str.to.re "0"))) (re.++ (str.to.re ".") ((_ re.capture 3) (re.++ ((_ re.loop 0 2) (re.range "0" "9")) ((_ re.loop 0 2) (re.union (str.to.re " ") (re.union (str.to.re "\u{0b}") (re.union (str.to.re "\u{0a}") (re.union (str.to.re "\u{0d}") (re.union (str.to.re "\u{09}") (str.to.re "\u{0c}")))))))))))))) re.end-anchor) (re.++ (re.++ re.begin-anchor (re.opt ((_ re.capture 4) (re.++ (str.to.re ".") ((_ re.loop 0 2) ((_ re.capture 5) (re.++ (re.range "0" "9") (re.union (str.to.re " ") (re.union (str.to.re "\u{0b}") (re.union (str.to.re "\u{0a}") (re.union (str.to.re "\u{0d}") (re.union (str.to.re "\u{09}") (str.to.re "\u{0c}"))))))))))))) re.end-anchor)) (re.++ (re.++ re.begin-anchor (re.opt ((_ re.capture 6) (re.++ ((_ re.loop 0 4) (re.union (str.to.re " ") (re.union (str.to.re "\u{0b}") (re.union (str.to.re "\u{0a}") (re.union (str.to.re "\u{0d}") (re.union (str.to.re "\u{09}") (str.to.re "\u{0c}"))))))) (re.++ ((_ re.loop 0 1) (str.to.re "1")) (re.++ (str.to.re ".") (re.++ ((_ re.loop 0 2) (str.to.re "0")) ((_ re.loop 0 4) (re.union (str.to.re " ") (re.union (str.to.re "\u{0b}") (re.union (str.to.re "\u{0a}") (re.union (str.to.re "\u{0d}") (re.union (str.to.re "\u{09}") (str.to.re "\u{0c}")))))))))))))) re.end-anchor)) (re.++ (re.++ re.begin-anchor (re.opt ((_ re.capture 7) (re.++ ((_ re.loop 0 4) (re.union (str.to.re " ") (re.union (str.to.re "\u{0b}") (re.union (str.to.re "\u{0a}") (re.union (str.to.re "\u{0d}") (re.union (str.to.re "\u{09}") (str.to.re "\u{0c}"))))))) (re.++ ((_ re.loop 0 1) (str.to.re "1")) ((_ re.loop 0 4) (re.union (str.to.re " ") (re.union (str.to.re "\u{0b}") (re.union (str.to.re "\u{0a}") (re.union (str.to.re "\u{0d}") (re.union (str.to.re "\u{09}") (str.to.re "\u{0c}")))))))))))) re.end-anchor)) (re.++ (re.++ re.begin-anchor (re.opt ((_ re.capture 8) (re.++ ((_ re.loop 0 4) (re.union (str.to.re " ") (re.union (str.to.re "\u{0b}") (re.union (str.to.re "\u{0a}") (re.union (str.to.re "\u{0d}") (re.union (str.to.re "\u{09}") (str.to.re "\u{0c}"))))))) (re.++ ((_ re.loop 0 4) (str.to.re "0")) (re.++ ((_ re.loop 0 1) (str.to.re "1")) ((_ re.loop 0 4) (re.union (str.to.re " ") (re.union (str.to.re "\u{0b}") (re.union (str.to.re "\u{0a}") (re.union (str.to.re "\u{0d}") (re.union (str.to.re "\u{09}") (str.to.re "\u{0c}"))))))))))))) re.end-anchor)) (re.++ (re.++ re.begin-anchor (re.opt ((_ re.capture 9) (re.++ ((_ re.loop 0 4) (str.to.re "0")) ((_ re.loop 0 4) (re.union (str.to.re " ") (re.union (str.to.re "\u{0b}") (re.union (str.to.re "\u{0a}") (re.union (str.to.re "\u{0d}") (re.union (str.to.re "\u{09}") (str.to.re "\u{0c}"))))))))))) re.end-anchor)) (re.++ (re.++ re.begin-anchor (re.opt ((_ re.capture 10) (re.++ ((_ re.loop 0 3) (re.union (str.to.re " ") (re.union (str.to.re "\u{0b}") (re.union (str.to.re "\u{0a}") (re.union (str.to.re "\u{0d}") (re.union (str.to.re "\u{09}") (str.to.re "\u{0c}"))))))) (re.++ ((_ re.loop 0 3) (str.to.re "0")) (re.++ ((_ re.loop 0 1) (str.to.re ".")) (re.++ ((_ re.loop 0 2) (re.range "0" "9")) ((_ re.loop 0 2) (re.union (str.to.re " ") (re.union (str.to.re "\u{0b}") (re.union (str.to.re "\u{0a}") (re.union (str.to.re "\u{0d}") (re.union (str.to.re "\u{09}") (str.to.re "\u{0c}")))))))))))))) re.end-anchor))))	; match!==null
(assert (not (str.in.re ((_ str.extract 1) var0 (re.union (re.union (re.union (re.union (re.union (re.union (re.++ (re.++ re.begin-anchor (re.opt ((_ re.capture 1) (re.++ ((_ re.capture 2) (re.union (re.union (str.to.re " ") (re.union (str.to.re "\u{0b}") (re.union (str.to.re "\u{0a}") (re.union (str.to.re "\u{0d}") (re.union (str.to.re "\u{09}") (str.to.re "\u{0c}")))))) (str.to.re "0"))) (re.++ (str.to.re ".") ((_ re.capture 3) (re.++ ((_ re.loop 0 2) (re.range "0" "9")) ((_ re.loop 0 2) (re.union (str.to.re " ") (re.union (str.to.re "\u{0b}") (re.union (str.to.re "\u{0a}") (re.union (str.to.re "\u{0d}") (re.union (str.to.re "\u{09}") (str.to.re "\u{0c}")))))))))))))) re.end-anchor) (re.++ (re.++ re.begin-anchor (re.opt ((_ re.capture 4) (re.++ (str.to.re ".") ((_ re.loop 0 2) ((_ re.capture 5) (re.++ (re.range "0" "9") (re.union (str.to.re " ") (re.union (str.to.re "\u{0b}") (re.union (str.to.re "\u{0a}") (re.union (str.to.re "\u{0d}") (re.union (str.to.re "\u{09}") (str.to.re "\u{0c}"))))))))))))) re.end-anchor)) (re.++ (re.++ re.begin-anchor (re.opt ((_ re.capture 6) (re.++ ((_ re.loop 0 4) (re.union (str.to.re " ") (re.union (str.to.re "\u{0b}") (re.union (str.to.re "\u{0a}") (re.union (str.to.re "\u{0d}") (re.union (str.to.re "\u{09}") (str.to.re "\u{0c}"))))))) (re.++ ((_ re.loop 0 1) (str.to.re "1")) (re.++ (str.to.re ".") (re.++ ((_ re.loop 0 2) (str.to.re "0")) ((_ re.loop 0 4) (re.union (str.to.re " ") (re.union (str.to.re "\u{0b}") (re.union (str.to.re "\u{0a}") (re.union (str.to.re "\u{0d}") (re.union (str.to.re "\u{09}") (str.to.re "\u{0c}")))))))))))))) re.end-anchor)) (re.++ (re.++ re.begin-anchor (re.opt ((_ re.capture 7) (re.++ ((_ re.loop 0 4) (re.union (str.to.re " ") (re.union (str.to.re "\u{0b}") (re.union (str.to.re "\u{0a}") (re.union (str.to.re "\u{0d}") (re.union (str.to.re "\u{09}") (str.to.re "\u{0c}"))))))) (re.++ ((_ re.loop 0 1) (str.to.re "1")) ((_ re.loop 0 4) (re.union (str.to.re " ") (re.union (str.to.re "\u{0b}") (re.union (str.to.re "\u{0a}") (re.union (str.to.re "\u{0d}") (re.union (str.to.re "\u{09}") (str.to.re "\u{0c}")))))))))))) re.end-anchor)) (re.++ (re.++ re.begin-anchor (re.opt ((_ re.capture 8) (re.++ ((_ re.loop 0 4) (re.union (str.to.re " ") (re.union (str.to.re "\u{0b}") (re.union (str.to.re "\u{0a}") (re.union (str.to.re "\u{0d}") (re.union (str.to.re "\u{09}") (str.to.re "\u{0c}"))))))) (re.++ ((_ re.loop 0 4) (str.to.re "0")) (re.++ ((_ re.loop 0 1) (str.to.re "1")) ((_ re.loop 0 4) (re.union (str.to.re " ") (re.union (str.to.re "\u{0b}") (re.union (str.to.re "\u{0a}") (re.union (str.to.re "\u{0d}") (re.union (str.to.re "\u{09}") (str.to.re "\u{0c}"))))))))))))) re.end-anchor)) (re.++ (re.++ re.begin-anchor (re.opt ((_ re.capture 9) (re.++ ((_ re.loop 0 4) (str.to.re "0")) ((_ re.loop 0 4) (re.union (str.to.re " ") (re.union (str.to.re "\u{0b}") (re.union (str.to.re "\u{0a}") (re.union (str.to.re "\u{0d}") (re.union (str.to.re "\u{09}") (str.to.re "\u{0c}"))))))))))) re.end-anchor)) (re.++ (re.++ re.begin-anchor (re.opt ((_ re.capture 10) (re.++ ((_ re.loop 0 3) (re.union (str.to.re " ") (re.union (str.to.re "\u{0b}") (re.union (str.to.re "\u{0a}") (re.union (str.to.re "\u{0d}") (re.union (str.to.re "\u{09}") (str.to.re "\u{0c}"))))))) (re.++ ((_ re.loop 0 3) (str.to.re "0")) (re.++ ((_ re.loop 0 1) (str.to.re ".")) (re.++ ((_ re.loop 0 2) (re.range "0" "9")) ((_ re.loop 0 2) (re.union (str.to.re " ") (re.union (str.to.re "\u{0b}") (re.union (str.to.re "\u{0a}") (re.union (str.to.re "\u{0d}") (re.union (str.to.re "\u{09}") (str.to.re "\u{0c}")))))))))))))) re.end-anchor))) (str.to.re "\x00"))))
;match[1]!==null
(assert (str.in.re ((_ str.extract 1) var0 (re.union (re.union (re.union (re.union (re.union (re.union (re.++ (re.++ re.begin-anchor (re.opt ((_ re.capture 1) (re.++ ((_ re.capture 2) (re.union (re.union (str.to.re " ") (re.union (str.to.re "\u{0b}") (re.union (str.to.re "\u{0a}") (re.union (str.to.re "\u{0d}") (re.union (str.to.re "\u{09}") (str.to.re "\u{0c}")))))) (str.to.re "0"))) (re.++ (str.to.re ".") ((_ re.capture 3) (re.++ ((_ re.loop 0 2) (re.range "0" "9")) ((_ re.loop 0 2) (re.union (str.to.re " ") (re.union (str.to.re "\u{0b}") (re.union (str.to.re "\u{0a}") (re.union (str.to.re "\u{0d}") (re.union (str.to.re "\u{09}") (str.to.re "\u{0c}")))))))))))))) re.end-anchor) (re.++ (re.++ re.begin-anchor (re.opt ((_ re.capture 4) (re.++ (str.to.re ".") ((_ re.loop 0 2) ((_ re.capture 5) (re.++ (re.range "0" "9") (re.union (str.to.re " ") (re.union (str.to.re "\u{0b}") (re.union (str.to.re "\u{0a}") (re.union (str.to.re "\u{0d}") (re.union (str.to.re "\u{09}") (str.to.re "\u{0c}"))))))))))))) re.end-anchor)) (re.++ (re.++ re.begin-anchor (re.opt ((_ re.capture 6) (re.++ ((_ re.loop 0 4) (re.union (str.to.re " ") (re.union (str.to.re "\u{0b}") (re.union (str.to.re "\u{0a}") (re.union (str.to.re "\u{0d}") (re.union (str.to.re "\u{09}") (str.to.re "\u{0c}"))))))) (re.++ ((_ re.loop 0 1) (str.to.re "1")) (re.++ (str.to.re ".") (re.++ ((_ re.loop 0 2) (str.to.re "0")) ((_ re.loop 0 4) (re.union (str.to.re " ") (re.union (str.to.re "\u{0b}") (re.union (str.to.re "\u{0a}") (re.union (str.to.re "\u{0d}") (re.union (str.to.re "\u{09}") (str.to.re "\u{0c}")))))))))))))) re.end-anchor)) (re.++ (re.++ re.begin-anchor (re.opt ((_ re.capture 7) (re.++ ((_ re.loop 0 4) (re.union (str.to.re " ") (re.union (str.to.re "\u{0b}") (re.union (str.to.re "\u{0a}") (re.union (str.to.re "\u{0d}") (re.union (str.to.re "\u{09}") (str.to.re "\u{0c}"))))))) (re.++ ((_ re.loop 0 1) (str.to.re "1")) ((_ re.loop 0 4) (re.union (str.to.re " ") (re.union (str.to.re "\u{0b}") (re.union (str.to.re "\u{0a}") (re.union (str.to.re "\u{0d}") (re.union (str.to.re "\u{09}") (str.to.re "\u{0c}")))))))))))) re.end-anchor)) (re.++ (re.++ re.begin-anchor (re.opt ((_ re.capture 8) (re.++ ((_ re.loop 0 4) (re.union (str.to.re " ") (re.union (str.to.re "\u{0b}") (re.union (str.to.re "\u{0a}") (re.union (str.to.re "\u{0d}") (re.union (str.to.re "\u{09}") (str.to.re "\u{0c}"))))))) (re.++ ((_ re.loop 0 4) (str.to.re "0")) (re.++ ((_ re.loop 0 1) (str.to.re "1")) ((_ re.loop 0 4) (re.union (str.to.re " ") (re.union (str.to.re "\u{0b}") (re.union (str.to.re "\u{0a}") (re.union (str.to.re "\u{0d}") (re.union (str.to.re "\u{09}") (str.to.re "\u{0c}"))))))))))))) re.end-anchor)) (re.++ (re.++ re.begin-anchor (re.opt ((_ re.capture 9) (re.++ ((_ re.loop 0 4) (str.to.re "0")) ((_ re.loop 0 4) (re.union (str.to.re " ") (re.union (str.to.re "\u{0b}") (re.union (str.to.re "\u{0a}") (re.union (str.to.re "\u{0d}") (re.union (str.to.re "\u{09}") (str.to.re "\u{0c}"))))))))))) re.end-anchor)) (re.++ (re.++ re.begin-anchor (re.opt ((_ re.capture 10) (re.++ ((_ re.loop 0 3) (re.union (str.to.re " ") (re.union (str.to.re "\u{0b}") (re.union (str.to.re "\u{0a}") (re.union (str.to.re "\u{0d}") (re.union (str.to.re "\u{09}") (str.to.re "\u{0c}"))))))) (re.++ ((_ re.loop 0 3) (str.to.re "0")) (re.++ ((_ re.loop 0 1) (str.to.re ".")) (re.++ ((_ re.loop 0 2) (re.range "0" "9")) ((_ re.loop 0 2) (re.union (str.to.re " ") (re.union (str.to.re "\u{0b}") (re.union (str.to.re "\u{0a}") (re.union (str.to.re "\u{0d}") (re.union (str.to.re "\u{09}") (str.to.re "\u{0c}")))))))))))))) re.end-anchor))) (re.++ re.all(re.+ (re.range "a" "z")) re.all) ))
;/[a-z]+/.test(match[1]) == true
(check-sat)
(get-model)
(pop 1)
(push 1)
(assert (str.in.re var0 (re.* (re.range "\x01" "\xff"))))
(assert (str.in.re var0 (re.union (re.union (re.union (re.union (re.union (re.union (re.++ (re.++ re.begin-anchor (re.opt ((_ re.capture 1) (re.++ ((_ re.capture 2) (re.union (re.union (str.to.re " ") (re.union (str.to.re "\u{0b}") (re.union (str.to.re "\u{0a}") (re.union (str.to.re "\u{0d}") (re.union (str.to.re "\u{09}") (str.to.re "\u{0c}")))))) (str.to.re "0"))) (re.++ (str.to.re ".") ((_ re.capture 3) (re.++ ((_ re.loop 0 2) (re.range "0" "9")) ((_ re.loop 0 2) (re.union (str.to.re " ") (re.union (str.to.re "\u{0b}") (re.union (str.to.re "\u{0a}") (re.union (str.to.re "\u{0d}") (re.union (str.to.re "\u{09}") (str.to.re "\u{0c}")))))))))))))) re.end-anchor) (re.++ (re.++ re.begin-anchor (re.opt ((_ re.capture 4) (re.++ (str.to.re ".") ((_ re.loop 0 2) ((_ re.capture 5) (re.++ (re.range "0" "9") (re.union (str.to.re " ") (re.union (str.to.re "\u{0b}") (re.union (str.to.re "\u{0a}") (re.union (str.to.re "\u{0d}") (re.union (str.to.re "\u{09}") (str.to.re "\u{0c}"))))))))))))) re.end-anchor)) (re.++ (re.++ re.begin-anchor (re.opt ((_ re.capture 6) (re.++ ((_ re.loop 0 4) (re.union (str.to.re " ") (re.union (str.to.re "\u{0b}") (re.union (str.to.re "\u{0a}") (re.union (str.to.re "\u{0d}") (re.union (str.to.re "\u{09}") (str.to.re "\u{0c}"))))))) (re.++ ((_ re.loop 0 1) (str.to.re "1")) (re.++ (str.to.re ".") (re.++ ((_ re.loop 0 2) (str.to.re "0")) ((_ re.loop 0 4) (re.union (str.to.re " ") (re.union (str.to.re "\u{0b}") (re.union (str.to.re "\u{0a}") (re.union (str.to.re "\u{0d}") (re.union (str.to.re "\u{09}") (str.to.re "\u{0c}")))))))))))))) re.end-anchor)) (re.++ (re.++ re.begin-anchor (re.opt ((_ re.capture 7) (re.++ ((_ re.loop 0 4) (re.union (str.to.re " ") (re.union (str.to.re "\u{0b}") (re.union (str.to.re "\u{0a}") (re.union (str.to.re "\u{0d}") (re.union (str.to.re "\u{09}") (str.to.re "\u{0c}"))))))) (re.++ ((_ re.loop 0 1) (str.to.re "1")) ((_ re.loop 0 4) (re.union (str.to.re " ") (re.union (str.to.re "\u{0b}") (re.union (str.to.re "\u{0a}") (re.union (str.to.re "\u{0d}") (re.union (str.to.re "\u{09}") (str.to.re "\u{0c}")))))))))))) re.end-anchor)) (re.++ (re.++ re.begin-anchor (re.opt ((_ re.capture 8) (re.++ ((_ re.loop 0 4) (re.union (str.to.re " ") (re.union (str.to.re "\u{0b}") (re.union (str.to.re "\u{0a}") (re.union (str.to.re "\u{0d}") (re.union (str.to.re "\u{09}") (str.to.re "\u{0c}"))))))) (re.++ ((_ re.loop 0 4) (str.to.re "0")) (re.++ ((_ re.loop 0 1) (str.to.re "1")) ((_ re.loop 0 4) (re.union (str.to.re " ") (re.union (str.to.re "\u{0b}") (re.union (str.to.re "\u{0a}") (re.union (str.to.re "\u{0d}") (re.union (str.to.re "\u{09}") (str.to.re "\u{0c}"))))))))))))) re.end-anchor)) (re.++ (re.++ re.begin-anchor (re.opt ((_ re.capture 9) (re.++ ((_ re.loop 0 4) (str.to.re "0")) ((_ re.loop 0 4) (re.union (str.to.re " ") (re.union (str.to.re "\u{0b}") (re.union (str.to.re "\u{0a}") (re.union (str.to.re "\u{0d}") (re.union (str.to.re "\u{09}") (str.to.re "\u{0c}"))))))))))) re.end-anchor)) (re.++ (re.++ re.begin-anchor (re.opt ((_ re.capture 10) (re.++ ((_ re.loop 0 3) (re.union (str.to.re " ") (re.union (str.to.re "\u{0b}") (re.union (str.to.re "\u{0a}") (re.union (str.to.re "\u{0d}") (re.union (str.to.re "\u{09}") (str.to.re "\u{0c}"))))))) (re.++ ((_ re.loop 0 3) (str.to.re "0")) (re.++ ((_ re.loop 0 1) (str.to.re ".")) (re.++ ((_ re.loop 0 2) (re.range "0" "9")) ((_ re.loop 0 2) (re.union (str.to.re " ") (re.union (str.to.re "\u{0b}") (re.union (str.to.re "\u{0a}") (re.union (str.to.re "\u{0d}") (re.union (str.to.re "\u{09}") (str.to.re "\u{0c}")))))))))))))) re.end-anchor))))	; match!==null
(assert (not (str.in.re ((_ str.extract 1) var0 (re.union (re.union (re.union (re.union (re.union (re.union (re.++ (re.++ re.begin-anchor (re.opt ((_ re.capture 1) (re.++ ((_ re.capture 2) (re.union (re.union (str.to.re " ") (re.union (str.to.re "\u{0b}") (re.union (str.to.re "\u{0a}") (re.union (str.to.re "\u{0d}") (re.union (str.to.re "\u{09}") (str.to.re "\u{0c}")))))) (str.to.re "0"))) (re.++ (str.to.re ".") ((_ re.capture 3) (re.++ ((_ re.loop 0 2) (re.range "0" "9")) ((_ re.loop 0 2) (re.union (str.to.re " ") (re.union (str.to.re "\u{0b}") (re.union (str.to.re "\u{0a}") (re.union (str.to.re "\u{0d}") (re.union (str.to.re "\u{09}") (str.to.re "\u{0c}")))))))))))))) re.end-anchor) (re.++ (re.++ re.begin-anchor (re.opt ((_ re.capture 4) (re.++ (str.to.re ".") ((_ re.loop 0 2) ((_ re.capture 5) (re.++ (re.range "0" "9") (re.union (str.to.re " ") (re.union (str.to.re "\u{0b}") (re.union (str.to.re "\u{0a}") (re.union (str.to.re "\u{0d}") (re.union (str.to.re "\u{09}") (str.to.re "\u{0c}"))))))))))))) re.end-anchor)) (re.++ (re.++ re.begin-anchor (re.opt ((_ re.capture 6) (re.++ ((_ re.loop 0 4) (re.union (str.to.re " ") (re.union (str.to.re "\u{0b}") (re.union (str.to.re "\u{0a}") (re.union (str.to.re "\u{0d}") (re.union (str.to.re "\u{09}") (str.to.re "\u{0c}"))))))) (re.++ ((_ re.loop 0 1) (str.to.re "1")) (re.++ (str.to.re ".") (re.++ ((_ re.loop 0 2) (str.to.re "0")) ((_ re.loop 0 4) (re.union (str.to.re " ") (re.union (str.to.re "\u{0b}") (re.union (str.to.re "\u{0a}") (re.union (str.to.re "\u{0d}") (re.union (str.to.re "\u{09}") (str.to.re "\u{0c}")))))))))))))) re.end-anchor)) (re.++ (re.++ re.begin-anchor (re.opt ((_ re.capture 7) (re.++ ((_ re.loop 0 4) (re.union (str.to.re " ") (re.union (str.to.re "\u{0b}") (re.union (str.to.re "\u{0a}") (re.union (str.to.re "\u{0d}") (re.union (str.to.re "\u{09}") (str.to.re "\u{0c}"))))))) (re.++ ((_ re.loop 0 1) (str.to.re "1")) ((_ re.loop 0 4) (re.union (str.to.re " ") (re.union (str.to.re "\u{0b}") (re.union (str.to.re "\u{0a}") (re.union (str.to.re "\u{0d}") (re.union (str.to.re "\u{09}") (str.to.re "\u{0c}")))))))))))) re.end-anchor)) (re.++ (re.++ re.begin-anchor (re.opt ((_ re.capture 8) (re.++ ((_ re.loop 0 4) (re.union (str.to.re " ") (re.union (str.to.re "\u{0b}") (re.union (str.to.re "\u{0a}") (re.union (str.to.re "\u{0d}") (re.union (str.to.re "\u{09}") (str.to.re "\u{0c}"))))))) (re.++ ((_ re.loop 0 4) (str.to.re "0")) (re.++ ((_ re.loop 0 1) (str.to.re "1")) ((_ re.loop 0 4) (re.union (str.to.re " ") (re.union (str.to.re "\u{0b}") (re.union (str.to.re "\u{0a}") (re.union (str.to.re "\u{0d}") (re.union (str.to.re "\u{09}") (str.to.re "\u{0c}"))))))))))))) re.end-anchor)) (re.++ (re.++ re.begin-anchor (re.opt ((_ re.capture 9) (re.++ ((_ re.loop 0 4) (str.to.re "0")) ((_ re.loop 0 4) (re.union (str.to.re " ") (re.union (str.to.re "\u{0b}") (re.union (str.to.re "\u{0a}") (re.union (str.to.re "\u{0d}") (re.union (str.to.re "\u{09}") (str.to.re "\u{0c}"))))))))))) re.end-anchor)) (re.++ (re.++ re.begin-anchor (re.opt ((_ re.capture 10) (re.++ ((_ re.loop 0 3) (re.union (str.to.re " ") (re.union (str.to.re "\u{0b}") (re.union (str.to.re "\u{0a}") (re.union (str.to.re "\u{0d}") (re.union (str.to.re "\u{09}") (str.to.re "\u{0c}"))))))) (re.++ ((_ re.loop 0 3) (str.to.re "0")) (re.++ ((_ re.loop 0 1) (str.to.re ".")) (re.++ ((_ re.loop 0 2) (re.range "0" "9")) ((_ re.loop 0 2) (re.union (str.to.re " ") (re.union (str.to.re "\u{0b}") (re.union (str.to.re "\u{0a}") (re.union (str.to.re "\u{0d}") (re.union (str.to.re "\u{09}") (str.to.re "\u{0c}")))))))))))))) re.end-anchor))) (str.to.re "\x00"))))	
;match[1]!==null
(assert (not (str.in.re ((_ str.extract 1) var0 (re.union (re.union (re.union (re.union (re.union (re.union (re.++ (re.++ re.begin-anchor (re.opt ((_ re.capture 1) (re.++ ((_ re.capture 2) (re.union (re.union (str.to.re " ") (re.union (str.to.re "\u{0b}") (re.union (str.to.re "\u{0a}") (re.union (str.to.re "\u{0d}") (re.union (str.to.re "\u{09}") (str.to.re "\u{0c}")))))) (str.to.re "0"))) (re.++ (str.to.re ".") ((_ re.capture 3) (re.++ ((_ re.loop 0 2) (re.range "0" "9")) ((_ re.loop 0 2) (re.union (str.to.re " ") (re.union (str.to.re "\u{0b}") (re.union (str.to.re "\u{0a}") (re.union (str.to.re "\u{0d}") (re.union (str.to.re "\u{09}") (str.to.re "\u{0c}")))))))))))))) re.end-anchor) (re.++ (re.++ re.begin-anchor (re.opt ((_ re.capture 4) (re.++ (str.to.re ".") ((_ re.loop 0 2) ((_ re.capture 5) (re.++ (re.range "0" "9") (re.union (str.to.re " ") (re.union (str.to.re "\u{0b}") (re.union (str.to.re "\u{0a}") (re.union (str.to.re "\u{0d}") (re.union (str.to.re "\u{09}") (str.to.re "\u{0c}"))))))))))))) re.end-anchor)) (re.++ (re.++ re.begin-anchor (re.opt ((_ re.capture 6) (re.++ ((_ re.loop 0 4) (re.union (str.to.re " ") (re.union (str.to.re "\u{0b}") (re.union (str.to.re "\u{0a}") (re.union (str.to.re "\u{0d}") (re.union (str.to.re "\u{09}") (str.to.re "\u{0c}"))))))) (re.++ ((_ re.loop 0 1) (str.to.re "1")) (re.++ (str.to.re ".") (re.++ ((_ re.loop 0 2) (str.to.re "0")) ((_ re.loop 0 4) (re.union (str.to.re " ") (re.union (str.to.re "\u{0b}") (re.union (str.to.re "\u{0a}") (re.union (str.to.re "\u{0d}") (re.union (str.to.re "\u{09}") (str.to.re "\u{0c}")))))))))))))) re.end-anchor)) (re.++ (re.++ re.begin-anchor (re.opt ((_ re.capture 7) (re.++ ((_ re.loop 0 4) (re.union (str.to.re " ") (re.union (str.to.re "\u{0b}") (re.union (str.to.re "\u{0a}") (re.union (str.to.re "\u{0d}") (re.union (str.to.re "\u{09}") (str.to.re "\u{0c}"))))))) (re.++ ((_ re.loop 0 1) (str.to.re "1")) ((_ re.loop 0 4) (re.union (str.to.re " ") (re.union (str.to.re "\u{0b}") (re.union (str.to.re "\u{0a}") (re.union (str.to.re "\u{0d}") (re.union (str.to.re "\u{09}") (str.to.re "\u{0c}")))))))))))) re.end-anchor)) (re.++ (re.++ re.begin-anchor (re.opt ((_ re.capture 8) (re.++ ((_ re.loop 0 4) (re.union (str.to.re " ") (re.union (str.to.re "\u{0b}") (re.union (str.to.re "\u{0a}") (re.union (str.to.re "\u{0d}") (re.union (str.to.re "\u{09}") (str.to.re "\u{0c}"))))))) (re.++ ((_ re.loop 0 4) (str.to.re "0")) (re.++ ((_ re.loop 0 1) (str.to.re "1")) ((_ re.loop 0 4) (re.union (str.to.re " ") (re.union (str.to.re "\u{0b}") (re.union (str.to.re "\u{0a}") (re.union (str.to.re "\u{0d}") (re.union (str.to.re "\u{09}") (str.to.re "\u{0c}"))))))))))))) re.end-anchor)) (re.++ (re.++ re.begin-anchor (re.opt ((_ re.capture 9) (re.++ ((_ re.loop 0 4) (str.to.re "0")) ((_ re.loop 0 4) (re.union (str.to.re " ") (re.union (str.to.re "\u{0b}") (re.union (str.to.re "\u{0a}") (re.union (str.to.re "\u{0d}") (re.union (str.to.re "\u{09}") (str.to.re "\u{0c}"))))))))))) re.end-anchor)) (re.++ (re.++ re.begin-anchor (re.opt ((_ re.capture 10) (re.++ ((_ re.loop 0 3) (re.union (str.to.re " ") (re.union (str.to.re "\u{0b}") (re.union (str.to.re "\u{0a}") (re.union (str.to.re "\u{0d}") (re.union (str.to.re "\u{09}") (str.to.re "\u{0c}"))))))) (re.++ ((_ re.loop 0 3) (str.to.re "0")) (re.++ ((_ re.loop 0 1) (str.to.re ".")) (re.++ ((_ re.loop 0 2) (re.range "0" "9")) ((_ re.loop 0 2) (re.union (str.to.re " ") (re.union (str.to.re "\u{0b}") (re.union (str.to.re "\u{0a}") (re.union (str.to.re "\u{0d}") (re.union (str.to.re "\u{09}") (str.to.re "\u{0c}")))))))))))))) re.end-anchor))) (re.++ re.all(re.+ (re.range "a" "z")) re.all) )))
;/[a-z]+/.test(match[1]) == false	
(check-sat)
(get-model)
(pop 1)
(push 1)
(assert (str.in.re var0 (re.* (re.range "\x01" "\xff"))))
(assert (str.in.re var0 (re.union (re.union (re.union (re.union (re.union (re.union (re.++ (re.++ re.begin-anchor (re.opt ((_ re.capture 1) (re.++ ((_ re.capture 2) (re.union (re.union (str.to.re " ") (re.union (str.to.re "\u{0b}") (re.union (str.to.re "\u{0a}") (re.union (str.to.re "\u{0d}") (re.union (str.to.re "\u{09}") (str.to.re "\u{0c}")))))) (str.to.re "0"))) (re.++ (str.to.re ".") ((_ re.capture 3) (re.++ ((_ re.loop 0 2) (re.range "0" "9")) ((_ re.loop 0 2) (re.union (str.to.re " ") (re.union (str.to.re "\u{0b}") (re.union (str.to.re "\u{0a}") (re.union (str.to.re "\u{0d}") (re.union (str.to.re "\u{09}") (str.to.re "\u{0c}")))))))))))))) re.end-anchor) (re.++ (re.++ re.begin-anchor (re.opt ((_ re.capture 4) (re.++ (str.to.re ".") ((_ re.loop 0 2) ((_ re.capture 5) (re.++ (re.range "0" "9") (re.union (str.to.re " ") (re.union (str.to.re "\u{0b}") (re.union (str.to.re "\u{0a}") (re.union (str.to.re "\u{0d}") (re.union (str.to.re "\u{09}") (str.to.re "\u{0c}"))))))))))))) re.end-anchor)) (re.++ (re.++ re.begin-anchor (re.opt ((_ re.capture 6) (re.++ ((_ re.loop 0 4) (re.union (str.to.re " ") (re.union (str.to.re "\u{0b}") (re.union (str.to.re "\u{0a}") (re.union (str.to.re "\u{0d}") (re.union (str.to.re "\u{09}") (str.to.re "\u{0c}"))))))) (re.++ ((_ re.loop 0 1) (str.to.re "1")) (re.++ (str.to.re ".") (re.++ ((_ re.loop 0 2) (str.to.re "0")) ((_ re.loop 0 4) (re.union (str.to.re " ") (re.union (str.to.re "\u{0b}") (re.union (str.to.re "\u{0a}") (re.union (str.to.re "\u{0d}") (re.union (str.to.re "\u{09}") (str.to.re "\u{0c}")))))))))))))) re.end-anchor)) (re.++ (re.++ re.begin-anchor (re.opt ((_ re.capture 7) (re.++ ((_ re.loop 0 4) (re.union (str.to.re " ") (re.union (str.to.re "\u{0b}") (re.union (str.to.re "\u{0a}") (re.union (str.to.re "\u{0d}") (re.union (str.to.re "\u{09}") (str.to.re "\u{0c}"))))))) (re.++ ((_ re.loop 0 1) (str.to.re "1")) ((_ re.loop 0 4) (re.union (str.to.re " ") (re.union (str.to.re "\u{0b}") (re.union (str.to.re "\u{0a}") (re.union (str.to.re "\u{0d}") (re.union (str.to.re "\u{09}") (str.to.re "\u{0c}")))))))))))) re.end-anchor)) (re.++ (re.++ re.begin-anchor (re.opt ((_ re.capture 8) (re.++ ((_ re.loop 0 4) (re.union (str.to.re " ") (re.union (str.to.re "\u{0b}") (re.union (str.to.re "\u{0a}") (re.union (str.to.re "\u{0d}") (re.union (str.to.re "\u{09}") (str.to.re "\u{0c}"))))))) (re.++ ((_ re.loop 0 4) (str.to.re "0")) (re.++ ((_ re.loop 0 1) (str.to.re "1")) ((_ re.loop 0 4) (re.union (str.to.re " ") (re.union (str.to.re "\u{0b}") (re.union (str.to.re "\u{0a}") (re.union (str.to.re "\u{0d}") (re.union (str.to.re "\u{09}") (str.to.re "\u{0c}"))))))))))))) re.end-anchor)) (re.++ (re.++ re.begin-anchor (re.opt ((_ re.capture 9) (re.++ ((_ re.loop 0 4) (str.to.re "0")) ((_ re.loop 0 4) (re.union (str.to.re " ") (re.union (str.to.re "\u{0b}") (re.union (str.to.re "\u{0a}") (re.union (str.to.re "\u{0d}") (re.union (str.to.re "\u{09}") (str.to.re "\u{0c}"))))))))))) re.end-anchor)) (re.++ (re.++ re.begin-anchor (re.opt ((_ re.capture 10) (re.++ ((_ re.loop 0 3) (re.union (str.to.re " ") (re.union (str.to.re "\u{0b}") (re.union (str.to.re "\u{0a}") (re.union (str.to.re "\u{0d}") (re.union (str.to.re "\u{09}") (str.to.re "\u{0c}"))))))) (re.++ ((_ re.loop 0 3) (str.to.re "0")) (re.++ ((_ re.loop 0 1) (str.to.re ".")) (re.++ ((_ re.loop 0 2) (re.range "0" "9")) ((_ re.loop 0 2) (re.union (str.to.re " ") (re.union (str.to.re "\u{0b}") (re.union (str.to.re "\u{0a}") (re.union (str.to.re "\u{0d}") (re.union (str.to.re "\u{09}") (str.to.re "\u{0c}")))))))))))))) re.end-anchor))))	; match!==null
(assert (str.in.re ((_ str.extract 1) var0 (re.union (re.union (re.union (re.union (re.union (re.union (re.++ (re.++ re.begin-anchor (re.opt ((_ re.capture 1) (re.++ ((_ re.capture 2) (re.union (re.union (str.to.re " ") (re.union (str.to.re "\u{0b}") (re.union (str.to.re "\u{0a}") (re.union (str.to.re "\u{0d}") (re.union (str.to.re "\u{09}") (str.to.re "\u{0c}")))))) (str.to.re "0"))) (re.++ (str.to.re ".") ((_ re.capture 3) (re.++ ((_ re.loop 0 2) (re.range "0" "9")) ((_ re.loop 0 2) (re.union (str.to.re " ") (re.union (str.to.re "\u{0b}") (re.union (str.to.re "\u{0a}") (re.union (str.to.re "\u{0d}") (re.union (str.to.re "\u{09}") (str.to.re "\u{0c}")))))))))))))) re.end-anchor) (re.++ (re.++ re.begin-anchor (re.opt ((_ re.capture 4) (re.++ (str.to.re ".") ((_ re.loop 0 2) ((_ re.capture 5) (re.++ (re.range "0" "9") (re.union (str.to.re " ") (re.union (str.to.re "\u{0b}") (re.union (str.to.re "\u{0a}") (re.union (str.to.re "\u{0d}") (re.union (str.to.re "\u{09}") (str.to.re "\u{0c}"))))))))))))) re.end-anchor)) (re.++ (re.++ re.begin-anchor (re.opt ((_ re.capture 6) (re.++ ((_ re.loop 0 4) (re.union (str.to.re " ") (re.union (str.to.re "\u{0b}") (re.union (str.to.re "\u{0a}") (re.union (str.to.re "\u{0d}") (re.union (str.to.re "\u{09}") (str.to.re "\u{0c}"))))))) (re.++ ((_ re.loop 0 1) (str.to.re "1")) (re.++ (str.to.re ".") (re.++ ((_ re.loop 0 2) (str.to.re "0")) ((_ re.loop 0 4) (re.union (str.to.re " ") (re.union (str.to.re "\u{0b}") (re.union (str.to.re "\u{0a}") (re.union (str.to.re "\u{0d}") (re.union (str.to.re "\u{09}") (str.to.re "\u{0c}")))))))))))))) re.end-anchor)) (re.++ (re.++ re.begin-anchor (re.opt ((_ re.capture 7) (re.++ ((_ re.loop 0 4) (re.union (str.to.re " ") (re.union (str.to.re "\u{0b}") (re.union (str.to.re "\u{0a}") (re.union (str.to.re "\u{0d}") (re.union (str.to.re "\u{09}") (str.to.re "\u{0c}"))))))) (re.++ ((_ re.loop 0 1) (str.to.re "1")) ((_ re.loop 0 4) (re.union (str.to.re " ") (re.union (str.to.re "\u{0b}") (re.union (str.to.re "\u{0a}") (re.union (str.to.re "\u{0d}") (re.union (str.to.re "\u{09}") (str.to.re "\u{0c}")))))))))))) re.end-anchor)) (re.++ (re.++ re.begin-anchor (re.opt ((_ re.capture 8) (re.++ ((_ re.loop 0 4) (re.union (str.to.re " ") (re.union (str.to.re "\u{0b}") (re.union (str.to.re "\u{0a}") (re.union (str.to.re "\u{0d}") (re.union (str.to.re "\u{09}") (str.to.re "\u{0c}"))))))) (re.++ ((_ re.loop 0 4) (str.to.re "0")) (re.++ ((_ re.loop 0 1) (str.to.re "1")) ((_ re.loop 0 4) (re.union (str.to.re " ") (re.union (str.to.re "\u{0b}") (re.union (str.to.re "\u{0a}") (re.union (str.to.re "\u{0d}") (re.union (str.to.re "\u{09}") (str.to.re "\u{0c}"))))))))))))) re.end-anchor)) (re.++ (re.++ re.begin-anchor (re.opt ((_ re.capture 9) (re.++ ((_ re.loop 0 4) (str.to.re "0")) ((_ re.loop 0 4) (re.union (str.to.re " ") (re.union (str.to.re "\u{0b}") (re.union (str.to.re "\u{0a}") (re.union (str.to.re "\u{0d}") (re.union (str.to.re "\u{09}") (str.to.re "\u{0c}"))))))))))) re.end-anchor)) (re.++ (re.++ re.begin-anchor (re.opt ((_ re.capture 10) (re.++ ((_ re.loop 0 3) (re.union (str.to.re " ") (re.union (str.to.re "\u{0b}") (re.union (str.to.re "\u{0a}") (re.union (str.to.re "\u{0d}") (re.union (str.to.re "\u{09}") (str.to.re "\u{0c}"))))))) (re.++ ((_ re.loop 0 3) (str.to.re "0")) (re.++ ((_ re.loop 0 1) (str.to.re ".")) (re.++ ((_ re.loop 0 2) (re.range "0" "9")) ((_ re.loop 0 2) (re.union (str.to.re " ") (re.union (str.to.re "\u{0b}") (re.union (str.to.re "\u{0a}") (re.union (str.to.re "\u{0d}") (re.union (str.to.re "\u{09}") (str.to.re "\u{0c}")))))))))))))) re.end-anchor))) (str.to.re "\x00")))
;match[1]==null
(check-sat)
(get-model)
(pop 1)
(push 1)
(assert (str.in.re var0 (re.* (re.range "\x01" "\xff"))))
(assert (not (str.in.re var0 (re.union (re.union (re.union (re.union (re.union (re.union (re.++ (re.++ re.begin-anchor (re.opt ((_ re.capture 1) (re.++ ((_ re.capture 2) (re.union (re.union (str.to.re " ") (re.union (str.to.re "\u{0b}") (re.union (str.to.re "\u{0a}") (re.union (str.to.re "\u{0d}") (re.union (str.to.re "\u{09}") (str.to.re "\u{0c}")))))) (str.to.re "0"))) (re.++ (str.to.re ".") ((_ re.capture 3) (re.++ ((_ re.loop 0 2) (re.range "0" "9")) ((_ re.loop 0 2) (re.union (str.to.re " ") (re.union (str.to.re "\u{0b}") (re.union (str.to.re "\u{0a}") (re.union (str.to.re "\u{0d}") (re.union (str.to.re "\u{09}") (str.to.re "\u{0c}")))))))))))))) re.end-anchor) (re.++ (re.++ re.begin-anchor (re.opt ((_ re.capture 4) (re.++ (str.to.re ".") ((_ re.loop 0 2) ((_ re.capture 5) (re.++ (re.range "0" "9") (re.union (str.to.re " ") (re.union (str.to.re "\u{0b}") (re.union (str.to.re "\u{0a}") (re.union (str.to.re "\u{0d}") (re.union (str.to.re "\u{09}") (str.to.re "\u{0c}"))))))))))))) re.end-anchor)) (re.++ (re.++ re.begin-anchor (re.opt ((_ re.capture 6) (re.++ ((_ re.loop 0 4) (re.union (str.to.re " ") (re.union (str.to.re "\u{0b}") (re.union (str.to.re "\u{0a}") (re.union (str.to.re "\u{0d}") (re.union (str.to.re "\u{09}") (str.to.re "\u{0c}"))))))) (re.++ ((_ re.loop 0 1) (str.to.re "1")) (re.++ (str.to.re ".") (re.++ ((_ re.loop 0 2) (str.to.re "0")) ((_ re.loop 0 4) (re.union (str.to.re " ") (re.union (str.to.re "\u{0b}") (re.union (str.to.re "\u{0a}") (re.union (str.to.re "\u{0d}") (re.union (str.to.re "\u{09}") (str.to.re "\u{0c}")))))))))))))) re.end-anchor)) (re.++ (re.++ re.begin-anchor (re.opt ((_ re.capture 7) (re.++ ((_ re.loop 0 4) (re.union (str.to.re " ") (re.union (str.to.re "\u{0b}") (re.union (str.to.re "\u{0a}") (re.union (str.to.re "\u{0d}") (re.union (str.to.re "\u{09}") (str.to.re "\u{0c}"))))))) (re.++ ((_ re.loop 0 1) (str.to.re "1")) ((_ re.loop 0 4) (re.union (str.to.re " ") (re.union (str.to.re "\u{0b}") (re.union (str.to.re "\u{0a}") (re.union (str.to.re "\u{0d}") (re.union (str.to.re "\u{09}") (str.to.re "\u{0c}")))))))))))) re.end-anchor)) (re.++ (re.++ re.begin-anchor (re.opt ((_ re.capture 8) (re.++ ((_ re.loop 0 4) (re.union (str.to.re " ") (re.union (str.to.re "\u{0b}") (re.union (str.to.re "\u{0a}") (re.union (str.to.re "\u{0d}") (re.union (str.to.re "\u{09}") (str.to.re "\u{0c}"))))))) (re.++ ((_ re.loop 0 4) (str.to.re "0")) (re.++ ((_ re.loop 0 1) (str.to.re "1")) ((_ re.loop 0 4) (re.union (str.to.re " ") (re.union (str.to.re "\u{0b}") (re.union (str.to.re "\u{0a}") (re.union (str.to.re "\u{0d}") (re.union (str.to.re "\u{09}") (str.to.re "\u{0c}"))))))))))))) re.end-anchor)) (re.++ (re.++ re.begin-anchor (re.opt ((_ re.capture 9) (re.++ ((_ re.loop 0 4) (str.to.re "0")) ((_ re.loop 0 4) (re.union (str.to.re " ") (re.union (str.to.re "\u{0b}") (re.union (str.to.re "\u{0a}") (re.union (str.to.re "\u{0d}") (re.union (str.to.re "\u{09}") (str.to.re "\u{0c}"))))))))))) re.end-anchor)) (re.++ (re.++ re.begin-anchor (re.opt ((_ re.capture 10) (re.++ ((_ re.loop 0 3) (re.union (str.to.re " ") (re.union (str.to.re "\u{0b}") (re.union (str.to.re "\u{0a}") (re.union (str.to.re "\u{0d}") (re.union (str.to.re "\u{09}") (str.to.re "\u{0c}"))))))) (re.++ ((_ re.loop 0 3) (str.to.re "0")) (re.++ ((_ re.loop 0 1) (str.to.re ".")) (re.++ ((_ re.loop 0 2) (re.range "0" "9")) ((_ re.loop 0 2) (re.union (str.to.re " ") (re.union (str.to.re "\u{0b}") (re.union (str.to.re "\u{0a}") (re.union (str.to.re "\u{0d}") (re.union (str.to.re "\u{09}") (str.to.re "\u{0c}")))))))))))))) re.end-anchor)))))	; match == null
(check-sat)
(get-model)
(pop 1)
(exit)
